c --- [ banner ] -------------------------------------------------------------
c 
c CaDiCaL Radically Simplified CDCL SAT Solver
c Copyright (c) 2016-2021 A. Biere, M. Fleury, N. Froleyks
c 
c Version 1.5.2 ca9bff05c11bde5eae4912f9932871d1527e61d8
c g++ (GCC) 9.3.0 -Wall -Wextra -O3 -DNDEBUG
c Thu Jul 28 23:42:48 EDT 2022 Linux gra-login3 3.10.0-1160.66.1.el7.x86_64 x86_64
c 
c --- [ limit ] --------------------------------------------------------------
c 
c setting conflict limit to 200000 conflicts (due to '200000')
c 
c --- [ parsing input ] ------------------------------------------------------
c 
c reading DIMACS file from '23.cubes619.adj'
c opening file to read '23.cubes619.adj'
c found 'p cnf 5320 914893' header
c parsed 914893 clauses in 8.20 seconds process time
c closing file '23.cubes619.adj'
c after reading 637829994 bytes 608.3 MB
c 
c --- [ options ] ------------------------------------------------------------
c 
c all options are set to their default value
c 
c --- [ solving ] ------------------------------------------------------------
c 
c time measured in process time since initialization
c 
c  seconds   reductions  redundant  irredundant
c          MB    restarts       trail      variables
c           level   conflicts       glue        remaining
c 
c *  8.20 630  0 0   0    0    0  0% 0 914847 2160 41%
c {  8.58 657  0 0   0    0    0  0% 0 914847 2160 41%
c i  9.22 686 609 0   1   49   44 26% 3 914847 2142 40%
c i  9.71 700 565 0   3   57   51 27% 4 914847 2118 40%
c i  9.99 703 493 0   6   65   58 26% 4 914847 2117 40%
c i 11.04 719 329 0  15  101   93 26% 8 914847 2116 40%
c i 11.43 723 303 0  18  129  114 25% 20 914847 2115 40%
c i 11.78 726 265 0  23  149  133 24% 19 914847 2094 39%
c i 12.58 729 207 0  38  225  185 23% 21 914847 2093 39%
c - 14.55 688 193 1  40  300  229 23% 19 301356 2093 39%
c i 15.73 652 164 1  74  435  333 23% 25 301356 2091 39%
c i 15.81 652 162 1  77  446  341 23% 26 301356 2090 39%
c i 15.81 652 162 1  77  447  341 23% 26 301356 2089 39%
c i 15.81 652 161 1  77  448  341 23% 25 301356 2088 39%
c i 15.81 652 161 1  78  449  341 23% 25 301356 2087 39%
c i 15.81 652 161 1  78  450  341 23% 25 301356 2086 39%
c i 16.25 653 111 1  87  731  561 25% 21 301356 2074 39%
c i 16.55 653 102 1  94  821  614 24% 21 301356 2073 39%
c i 16.69 653 99 1  94  853  642 25% 21 301356 2072 39%
c } 16.98 653 90 1  94 1001  739 24% 19 301356 2072 39%
c 
c  seconds   reductions  redundant  irredundant
c          MB    restarts       trail      variables
c           level   conflicts       glue        remaining
c 
c [ 16.98 653  0 1  94 1001  739  0% 0 301356 2072 39%
c O 16.98 653  0 1  94 1002  739 10% 0 301356 2072 39%
c i 16.98 653  0 1  94 1002  739 10% 0 301356 2070 39%
c i 16.98 653  0 1  94 1003  739 11% 0 301356 2059 39%
c i 16.98 653  0 1  94 1004  739 10% 0 301356 2048 38%
c i 17.29 654 18 1  94 1109  813 26% 13 301356 2047 38%
c - 17.89 787 20 2  94 1188  802 27% 15 300458 2047 38%
c i 18.17 787 23 2  94 1668 1117 28% 19 300458 2046 38%
c i 18.24 787 24 2  94 1755 1154 28% 20 300458 2045 38%
c i 18.49 787 28 2  95 2387 1507 29% 22 300458 2044 38%
c - 18.84 787 28 3  95 2519 1187 29% 23 300449 2044 38%
c i 19.22 786 28 3  95 2889 1425 56% 23 300449 2043 38%
c i 19.25 786 28 3  95 2931 1449 56% 23 300449 2042 38%
c i 19.26 786 28 3  95 2947 1459 56% 23 300449 2041 38%
c ] 19.28 786 28 3  95 3004 1502 56% 23 300449 2041 38%
c { 19.28 786 90 3  95 3004 1502 63% 19 300449 2041 38%
c F 19.32 786 90 3  95 3005 1502 63% 19 300449 2041 38%
c i 19.32 786 90 3  95 3005 1502 63% 19 300449 2040 38%
c i 19.63 786 86 3  95 3073 1563 63% 19 300449 2039 38%
c i 19.66 786 87 3  95 3081 1565 62% 19 300449 2033 38%
c 
c  seconds   reductions  redundant   irredundant
c          MB    restarts       trail       variables
c           level   conflicts       glue         remaining
c 
c i 20.16 786 84 3 108 3179 1643 61% 19 300449 2032 38%
c i 20.25 786 84 3 111 3197 1658 60% 19 300449 2031 38%
c i 20.26 786 84 3 111 3201 1661 60% 19 300449 2030 38%
c i 20.30 786 84 3 111 3209 1667 60% 19 300449 2029 38%
c i 20.70 786 82 3 127 3305 1744 59% 20 300449 2028 38%
c i 20.74 786 82 3 128 3312 1750 59% 20 300449 2027 38%
c i 20.81 786 82 3 131 3322 1759 59% 21 300449 2026 38%
c i 21.28 786 80 3 148 3419 1829 57% 21 300449 2025 38%
c i 21.29 786 79 3 148 3438 1846 57% 21 300449 2024 38%
c i 21.29 786 79 3 148 3441 1848 57% 21 300449 2023 38%
c i 21.35 786 78 3 148 3457 1862 57% 21 300449 2022 38%
c i 21.40 786 76 3 148 3528 1919 57% 20 300449 2021 38%
c i 21.61 786 76 3 150 3608 1983 56% 20 300449 2020 38%
c i 21.61 786 76 3 150 3613 1986 56% 21 300449 2018 38%
c i 21.64 786 77 3 153 3628 2000 56% 21 300449 2017 38%
c i 21.65 786 77 3 155 3638 2009 56% 21 300449 2016 38%
c i 21.88 786 79 3 162 3670 2038 56% 22 300449 2015 38%
c i 22.27 786 78 3 178 3766 2089 54% 22 300449 1985 37%
c i 22.46 786 77 3 178 3791 2111 54% 22 300449 1984 37%
c i 23.14 786 74 3 194 3987 2231 53% 21 300449 1983 37%
c 
c  seconds   reductions  redundant   irredundant
c          MB    restarts       trail       variables
c           level   conflicts       glue         remaining
c 
c i 23.22 786 74 3 198 4013 2254 53% 22 300449 1982 37%
c i 23.28 786 75 3 199 4020 2260 53% 22 300449 1981 37%
c i 23.68 786 73 3 209 4107 2334 53% 22 300449 1980 37%
c i 23.69 786 73 3 209 4122 2348 53% 22 300449 1979 37%
c - 24.60 774 70 4 219 4298 1931 52% 22 299802 1979 37%
c i 25.04 774 68 4 223 4419 2032 52% 22 299802 1978 37%
c i 25.19 774 67 4 223 4466 2073 52% 21 299802 1977 37%
c i 25.73 774 66 4 231 4590 2173 52% 22 299802 1976 37%
c i 25.98 774 66 4 238 4621 2199 52% 22 299802 1975 37%
c i 26.37 774 64 4 245 4745 2293 51% 21 299802 1974 37%
c i 26.60 774 60 4 245 4986 2445 51% 20 299802 1973 37%
c d 27.10 774 60 4 245 5000 2450 51% 20 298908 1963 37%
c 2 27.16 774 60 4 245 5000 4049 51% 20 298907 1958 37%
c p 33.47 774 60 4 245 5000 7558 51% 20 298907 1903 36%
c d 33.95 774 60 4 245 5000 7189 51% 20 298723 1900 36%
c # 35.97 774 51 4 296 6008 7743 48% 20 298723 1900 36%
c - 37.80 765 51 5 379 6514 2843 48% 20 298723 1900 36%
c } 39.89 765 50 5 425 7005 3220 48% 21 298723 1900 36%
c [ 39.89 765 28 5 425 7005 3220 56% 23 298723 1900 36%
c - 41.91 765 25 6 427 9169 3668 52% 21 298723 1900 36%
c 
c  seconds   reductions   redundant   irredundant
c          MB    restarts        trail       variables
c           level    conflicts       glue         remaining
c 
c I 42.57 765 24 6 427 10013 4247 52% 20 298723 1900 36%
c - 46.13 765 29 7 429 12270 4082 51% 23 298723 1900 36%
c 2 49.59 765 29 7 430 15001 7453 51% 24 298721 1900 36%
c p 51.59 765 29 7 430 15001 10780 51% 24 298721 1900 36%
c ] 51.76 765 29 7 430 15005 10784 51% 24 298721 1900 36%
c { 51.76 765 50 7 430 15005 10784 48% 21 298721 1900 36%
c B 51.93 765 50 7 433 15014 10792 48% 21 298721 1900 36%
c - 54.20 765 48 8 503 15810 4715 49% 21 298721 1900 36%
c s 59.28 766 46 8 703 17454 5901 49% 22 295869 1900 36%
c v 64.80 766 46 8 703 17454 5901 49% 22 295833 1900 36%
c t 64.97 766 46 8 703 17454 5893 49% 22 295826 1900 36%
c e 65.99 766 46 8 703 17454 5458 49% 22 293709 844 16%
c s 66.10 766 46 8 703 17454 5458 49% 22 293600 844 16%
c - 70.60 766 41 9 786 19799 5302 70% 21 293600 844 16%
c W 71.89 766 39 9 831 21015 6098 71% 21 293600 844 16%
c - 75.99 766 36 10 939 24202 5844 71% 20 293600 844 16%
c F 78.81 766 31 10 957 28016 8077 71% 19 293600 844 16%
c - 80.21 766 31 11 960 29047 6239 71% 18 293600 844 16%
c 2 80.93 766 30 11 962 30005 7819 72% 18 293599 844 16%
c p 83.19 766 30 11 962 30005 10178 72% 18 293599 843 16%
c 
c  seconds   reductions     redundant   irredundant
c          MB     restarts         trail       variables
c           level     conflicts        glue        remaining
c 
c } 84.11 766 30 11 966 31005 10794 72% 18 293599 843 16%
c [ 84.11 766 29 11 966 31005 10794 124% 24 293599 843 16%
c - 86.40 766 28 12 967 34330 6897 109% 23 293596 843 16%
c B 87.62 766 29 12 969 36018 8030 104% 24 293596 843 16%
c - 91.64 766 29 13 972 40054 7431 96% 25 293596 843 16%
c W 100.01 766 30 13 973 45024 10851 91% 25 293596 843 16%
c - 101.69 766 29 14 974 46220 7944 90% 25 293596 843 16%
c p 106.69 766 28 14 974 50007 13669 87% 24 293596 843 16%
c s 108.74 766 28 14 974 51224 14423 86% 24 293420 843 16%
c v 112.39 766 28 14 974 51224 14423 86% 24 293388 843 16%
c t 112.56 766 28 14 974 51224 14406 86% 24 293387 843 16%
c s 113.64 767 28 14 974 51224 14404 86% 24 293227 843 16%
c - 116.98 655 28 15 974 52825 8663 85% 24 293227 843 16%
c O 118.89 655 28 15 975 55025 10097 85% 24 293227 843 16%
c ] 120.58 655 28 15 978 58750 12367 83% 24 293227 843 16%
c 1 120.58 655 28 15 978 58750 12367 83% 24 293227 843 16%
c 
c --- [ writing output ] -----------------------------------------------------
c 
c writing simplified CNF to DIMACS file 'simp/23.cubes619.adj.simp1'
c * 120.58 655 28 15 978 58750 12367 83% 24 293227 843 16%
c opening file to write 'simp/23.cubes619.adj.simp1'
c writing 'p cnf 5320 293227' header
c closing file 'simp/23.cubes619.adj.simp1'
c after writing 123417410 bytes 117.7 MB
c wrote 293227 clauses in 0.99 seconds process time
c 
c --- [ writing extension ] --------------------------------------------------
c 
c writing extension stack to 'simp/23.cubes619.adj.ext1'
c opening file to write 'simp/23.cubes619.adj.ext1'
c closing file 'simp/23.cubes619.adj.ext1'
c after writing 75765 bytes 0.1 MB
c wrote 3302 witnesses in 0.00 seconds process time
c 
c --- [ result ] -------------------------------------------------------------
c 
s SATISFIABLE
c 
c --- [ run-time profiling ] -------------------------------------------------
c 
c process time taken by individual solving procedures
c (percentage relative to process time for solving)
c 
c        85.55   76.12% search
c        43.78   38.96% unstable
c        39.65   35.28% stable
c        26.84   23.88% simplify
c        11.94   10.63% probe
c         9.43    8.39% vivify
c         8.20    7.29% parse
c         3.64    3.24% elim
c         1.74    1.55% walk
c         0.51    0.45% subsume
c         0.38    0.33% lucky
c         0.16    0.14% ternary
c   =================================
c       112.38   92.44% solve
c 
c last line shows process time for solving
c (percentage relative to total process time)
c 
c --- [ statistics ] ---------------------------------------------------------
c 
c chronological:              9922        16.89 %  of conflicts
c conflicts:                 58750       522.77    per second
c decisions:                130016      1156.90    per second
c eliminated:                 1056        19.85 %  of all variables
c fixed:                       571        10.73 %  of all variables
c learned:                   57584        98.02 %  per conflict
c learned_lits:           10880203       100.00 %  learned literals
c minimized:                     0         0.00 %  learned literals
c shrunken:                6669160        61.30 %  learned literals
c minishrunken:             942539         8.66 %  learned literals
c propagations:            4997825         0.04 M  per second
c reduced:                   27223        46.34 %  per conflict
c rephased:                     10      5875.00    interval
c restarts:                    978        60.07    interval
c stabilizing:                   3        64.25 %  of conflicts
c substituted:                  13         0.24 %  of all variables
c subsumed:                  21123         0.98 %  of all clauses
c strengthened:               8986         0.42 %  of all clauses
c ternary:                    4859         0.97 %  of resolved
c vivified:                    106         0.00 %  of all clauses
c walked:                        2     29375.00    interval
c weakened:                   2731         3.10    average size
c 
c seconds are measured in process time for solving
c 
c --- [ resources ] ----------------------------------------------------------
c 
c total process time since initialization:       121.57    seconds
c total real time since initialization:          121.88    seconds
c maximum resident set size of process:          919.88    MB
c 
c --- [ shutting down ] ------------------------------------------------------
c 
c exit 10
WARNING! DIMACS header mismatch: wrong number of variables.
============================[ Problem Statistics ]=============================
|                                                                             |
|  Number of variables:          5282                                         |
|  Number of clauses:          293231                                         |
|  Parse time:                   1.66 s                                       |
|  Simplification time:          0.03 s                                       |
|                                                                             |
============================[ Search Statistics ]====================================================
| Conflicts |          ORIGINAL         |          LEARNT          | Num Sols |      SUBGRAPHS      |
|           |    Vars  Clauses Literals |    Limit  Clauses Lit/Cl |          | Canonical Noncanon. |
=====================================================================================================
|       321 |    5208   293452 27673553 |     2000      321     19 |        0 |       104       221 |
|      1197 |    5208   294178 27684559 |     2000     1197     16 |        0 |       259       947 |
|      1611 |    5208   294367 27686803 |     2000     1611     14 |        0 |       317      1136 |
|      2717 |    5208   295136 27696359 |     3608     1725     11 |        0 |       579      1905 |
|      4750 |    5208   296663 27717694 |     5010     1960     10 |        0 |       879      3432 |
|      8698 |    5208   299852 27761641 |     6309     3407     12 |        0 |      1541      6621 |
|     14643 |    5208   304658 27830008 |     7561     6204     11 |        0 |      2310     11427 |
|     25104 |    5208   313411 27950130 |    10001     8505     11 |        0 |      3752     20180 |
|     42031 |    5180   327775 28102246 |    13601     8629      8 |        0 |      5150     34545 |
=====================================================================================================
Number of solutions   : 0
Canonical subgraphs   : 5166           (41 /sec)
          order  3    : 1              (200000 /sec)
          order  4    : 1              (500000 /sec)
          order  5    : 1              (200000 /sec)
          order  6    : 1              (55556 /sec)
          order  7    : 2              (10152 /sec)
          order  8    : 4              (2111 /sec)
          order  9    : 12             (534 /sec)
          order 10    : 50             (167 /sec)
          order 11    : 184            (68 /sec)
          order 12    : 453            (36 /sec)
          order 13    : 4125           (41 /sec)
          order 14    : 311            (33 /sec)
          order 15    : 19             (30 /sec)
          order 16    : 2              (13 /sec)
          order 17    : 0              (-nan /sec)
          order 18    : 0              (-nan /sec)
          order 19    : 0              (-nan /sec)
          order 20    : 0              (-nan /sec)
          order 21    : 0              (-nan /sec)
Noncanonical subgraphs: 35153          (335 /sec)
          order  3    : 0              (-nan /sec)
          order  4    : 0              (-nan /sec)
          order  5    : 0              (-nan /sec)
          order  6    : 0              (-nan /sec)
          order  7    : 0              (-nan /sec)
          order  8    : 0              (-nan /sec)
          order  9    : 0              (-nan /sec)
          order 10    : 0              (-nan /sec)
          order 11    : 0              (-nan /sec)
          order 12    : 0              (-nan /sec)
          order 13    : 7424           (1829 /sec)
          order 14    : 26614          (273 /sec)
          order 15    : 1044           (310 /sec)
          order 16    : 56             (280 /sec)
          order 17    : 15             (229 /sec)
          order 18    : 0              (-nan /sec)
          order 19    : 0              (-nan /sec)
          order 20    : 0              (-nan /sec)
Canonicity checking   : 125.771 s
Noncanonicity checking: 105.085 s
Total canonicity time : 230.856 s
database reductions   : 9
restarts              : 127
conflicts             : 42714          (168 /sec)
decisions             : 88990          (0.00 % random) (350 /sec)
propagations          : 2050451        (8065 /sec)
conflict literals     : 545750         (64.70 % deleted)
actual reward         : 0.086887
Memory used           : 155.00 MB
CPU time              : 254.246 s

UNSATISFIABLE
